NAME : local_4
TYPE : ATSP
DIMENSION : 4
EDGE_WEIGHT_TYPE : EXPLICIT
EDGE_WEIGHT_FORMAT : FULL_MATRIX
EDGE_WEIGHT_SECTION
0 10000000 810 10000000 
0 0 10000000 493 
0 10000000 0 10000000 
0 493 10000000 0 
EOF